300
400
320
319
319
319
319
318
318
315
314
314
312
311
311
309
308
308
307
305
305
305
304
303
303
301
300
299
296
295
293
293
292
292
292
291
291
290
290
289
289
288
287
286
286
285
285
284
284
280
279
278
278
277
277
275
275
274
274
274
272
272
268
268
267
267
267
266
264
264
264
263
262
262
260
259
259
259
259
258
256
256
255
254
254
254
253
250
247
247
247
246
245
243
243
242
240
240
239
239
239
238
238
237
236
236
235
235
234
233
231
230
228
227
227
227
225
225
225
225
223
222
222
221
221
220
219
218
218
218
218
218
217
216
216
215
212
212
211
210
210
206
205
205
205
204
203
203
201
200
199
198
198
198
197
197
196
196
195
194
194
193
192
192
191
190
190
190
189
188
187
187
187
185
183
182
182
182
182
182
179
178
178
178
177
176
174
174
170
169
169
167
167
166
166
166
166
165
162
161
161
160
160
160
160
159
159
155
154
154
154
153
150
150
148
148
148
147
146
145
145
144
139
138
137
136
136
136
135
133
132
132
132
131
131
130
130
129
129
129
128
127
126
124
122
121
119
117
116
116
115
115
114
114
113
113
113
112
111
110
109
109
108
108
108
108
107
107
106
106
105
105
105
104
104
103
103
103
99
99
97
96
94
93
93
92
92
92
91
91
90
90
88
88
88
87
86
86
86
84
83
81
